Data path: /scratch/opt/lxu/CFLG/benchmarks/random_B
Instance: r_40_0.3_219.txt
Result path: /scratch/opt/lxu/CFLG/results/random_B
Solver: Gurobi
Time limit: 3600
Formulation: LEFP
Cover: Large
julia --project=. src/main.jl /scratch/opt/lxu/CFLG/benchmarks/random_B r_40_0.3_219.txt /scratch/opt/lxu/CFLG/results/random_B Gurobi 3600 LEFP Large
The latest version of Julia in the `release` channel is 1.11.5+0.x64.linux.gnu. You currently have `1.11.4+0.x64.linux.gnu` installed. Run:

  juliaup update

in your terminal shell to install Julia 1.11.5+0.x64.linux.gnu and update the `release` channel to that version.
/scratch/opt/lxu/CFLG/benchmarks/random_B Gurobi 3600.0 /scratch/opt/lxu/CFLG/results/random_B r_40_0.3_219.txt LEFP Large
/scratch/opt/lxu/CFLG/benchmarks/random_B/r_40_0.3_219.txt

 read graph
data loaded

problem_graph/original graph: node: 40/40 edge: 219/219 dlt: 1.2662647431939615 break_avg_len: 0.6331323715969808 break_max_len: 0.9989750688619838Set parameter TokenServer to value "solice01.zib.de"
Set parameter Threads to value 1
Set parameter OutputFlag to value 1
Gurobi Optimizer version 12.0.1 build v12.0.1rc0 (linux64 - "Debian GNU/Linux 12 (bookworm)")

CPU model: Intel(R) Xeon(R) Gold 5122 CPU @ 3.60GHz, instruction set [SSE2|AVX|AVX2|AVX512]
Thread count: 8 physical cores, 16 logical processors, using up to 1 threads

Non-default parameters:
Threads  1

Optimize a model with 259 rows, 657 columns and 1095 nonzeros
Model fingerprint: 0xb84c5949
Coefficient statistics:
  Matrix range     [1e+00, 1e+00]
  Objective range  [1e+00, 1e+00]
  Bounds range     [1e+00, 1e+00]
  RHS range        [0e+00, 0e+00]
Presolve removed 259 rows and 657 columns
Presolve time: 0.02s
Presolve: All rows and columns removed
Iteration    Objective       Primal Inf.    Dual Inf.      Time
       0   -0.0000000e+00   0.000000e+00   0.000000e+00      0s

Solved in 0 iterations and 0.02 seconds (0.00 work units)
Optimal objective -0.000000000e+00

User-callback calls 35, time in user-callback 0.01 sec
elapsed CPU time: 1.239051 seconds
Set parameter TokenServer to value "solice01.zib.de"
Set parameter Threads to value 1
Set parameter OutputFlag to value 1
Set parameter MIPGap to value 0.0001
Set parameter MIPGapAbs to value 1
Set parameter TimeLimit to value 3598.760949

 more cuts:falsefalse
0 0
formulation:LEFP0 219 40

 model loaded

Gurobi Optimizer version 12.0.1 build v12.0.1rc0 (linux64 - "Debian GNU/Linux 12 (bookworm)")

CPU model: Intel(R) Xeon(R) Gold 5122 CPU @ 3.60GHz, instruction set [SSE2|AVX|AVX2|AVX512]
Thread count: 8 physical cores, 16 logical processors, using up to 1 threads

Non-default parameters:
TimeLimit  3598.760949
MIPGapAbs  1
Threads  1

Optimize a model with 36784 rows, 17535 columns and 109933 nonzeros
Model fingerprint: 0xfdd1ea01
Variable types: 478 continuous, 17057 integer (17057 binary)
Coefficient statistics:
  Matrix range     [1e-06, 2e+00]
  Objective range  [1e+00, 1e+00]
  Bounds range     [3e-01, 1e+00]
  RHS range        [3e-01, 2e+01]
Found heuristic solution: objective 25.0000000
Presolve removed 8201 rows and 256 columns
Presolve time: 0.42s
Presolved: 28583 rows, 17279 columns, 101295 nonzeros
Variable types: 259 continuous, 17020 integer (17020 binary)

Root relaxation: objective 4.706201e-01, 10818 iterations, 1.35 seconds (2.75 work units)

    Nodes    |    Current Node    |     Objective Bounds      |     Work
 Expl Unexpl |  Obj  Depth IntInf | Incumbent    BestBd   Gap | It/Node Time

     0     0    0.47062    0 1015   25.00000    0.47062  98.1%     -    3s
H    0     0                       7.0000000    0.47062  93.3%     -    3s
H    0     0                       6.0000000    0.47062  92.2%     -    3s
H    0     0                       5.0000000    0.47062  90.6%     -    3s
H    0     0                       4.0000000    0.47062  88.2%     -    3s
H    0     0                       3.0000000    0.47062  84.3%     -    4s
     0     0    0.59500    0  485    3.00000    0.59500  80.2%     -   11s
H    0     0                       2.0000000    0.59676  70.2%     -   13s
     0     0    0.69830    0  749    2.00000    0.69830  65.1%     -   13s
     0     0    0.74755    0  954    2.00000    0.74755  62.6%     -   15s
     0     0    0.76627    0  940    2.00000    0.76627  61.7%     -   16s
     0     0    0.76631    0  901    2.00000    0.76631  61.7%     -   16s
     0     0    0.84324    0  841    2.00000    0.84324  57.8%     -   17s

Cutting planes:
  Learned: 4
  Cover: 3
  Implied bound: 4
  Clique: 2
  MIR: 58
  StrongCG: 2
  GUB cover: 5
  Zero half: 1
  RLT: 7
  Relax-and-lift: 18
  BQP: 26
  PSD: 1

Explored 1 nodes (41018 simplex iterations) in 21.05 seconds (23.56 work units)
Thread count was 1 (of 16 available processors)

Solution count 7: 2 3 4 ... 25

Optimal solution found (tolerance 1.00e-04)
Best objective 2.000000000000e+00, best bound 2.000000000000e+00, gap 0.0000%

User-callback calls 6776, time in user-callback 0.01 sec

 sepatime0
2.0Stat(MathOptInterface.OPTIMAL, 2.0, 2.0, 0.0, 0.0, 1.239051, 21.054929971694946, 1, Main.CFLG.LEFP, "", #undef)
